(set-logic QF_S)
(declare-fun var0 () String)
(declare-fun var1 () Int)
(declare-fun var2 () Bool)
(declare-fun var3 () String)
(declare-fun var4 () Int)
(declare-fun var5 () Bool)
(declare-fun var6 () String)
(declare-fun var7 () Int)
(declare-fun var8 () Bool)
(assert (>= (str.len (str.substr var0 var4 var4)) (str.len (str.at var3 var4))))
(assert (>= (str.len (str.replace var6 var3 var3)) (str.len (str.at var0 var4))))
(assert (str.suffixof (str.at (str.replace var0 "QbV}>Y#F.I" var0) (str.indexof var3 var3 var4)) (str.replace (str.replace var0 var0 var6) (str.substr var6 var4 var7) (str.at var0 var7))))
(assert (str.contains var6 var6))
(check-sat)